(set-info :smt-lib-version 2.6)
(set-logic QF_SLIA)
(set-info :source |
Generated by: Dmitry Blotsky1, Federico Mora, Murphy Berzish, Yunhui Zheng, Ifaz Kabir, Vijay Ganesh, Zhengyang Lu
Generated on: 2018-01-24
Generator: StringFuzz
Application: Evaluate string solvers
Target solver: Z3str3, CVC4, Z3str2, Norn
Publications: Blotsky, D., Mora, F., Berzish, M., Zheng, Y., Kabir, I., & Ganesh, V. (2018). Stringfuzz: A fuzzer for string solvers. In CAV 2018.
Description: transformed by StringFuzz, a modular string and regex fuzzer, from an industrial benchmark
|)
(set-info :license "https://creativecommons.org/licenses/by/4.0/")
(set-info :category "random")
(set-info :status unknown)

(declare-const x String)
(declare-const y String)
(assert (str.in_re x (re.* (re.++ (str.to_re "Pnn>Cs$T''\n'RDoc{,t") (str.to_re "1IlvJg23b")))))
(assert (= 16 (str.len x)))
(assert (not (= x "Nf""%%nQ3y{y|H+Q{'\t'$t=ssp8'\r'`8t(1iS:15H'\x0c'DiZXY6#33Nf7kAVKj`FrkG+2Fx'\x0b'z83a8b}kR{~8ePR_v/Dh%'\n'SFKrk")))
(assert (not (= x "NM@S[mLuMEKFcU' 'F#{NFdGU'\x0c'xPe@uLB+\\'hp/G!dR${t1n@TY8;j<LR&A;Bz'\t')\\gWW9j^j>5`Z;2F'\x0b'4aNN(#[C*1^=E")))
(check-sat)

(exit)
